proyfinal/src/viki/013/experimentInOfficeAgust.take6.output/0bdb49bb-5384-446e-ba58-a0d207bd114f.als.dat
{'cnf.clauses': '118081',
 'cnf.totvars': '69608',
 'conflict literals': '58',
 'conflicts': '23',
 'decisions': '4883',
 'memused.mb': '14.82',
 'outcome': 'UNSAT',
 'propagations': '26250',
 'restarts': '1',
 'solver.msecs': 26,
 'task.msecs': 91}
