proyfinal/src/viki/013/experimentInOfficeAgust.take6.output/0bdb49bb-5384-446e-ba58-a0d207bd114f.als.out
Reading from standard input... Use '--help' for help.
============================[ Problem Statistics ]=============================
|                                                                             |
|  Number of variables:         69608                                         |
|  Number of clauses:          118081                                         |
|  Parse time:                   0.02 s                                       |
|                                                                             |
============================[ Search Statistics ]==============================
| Conflicts |          ORIGINAL         |          LEARNT          | Progress |
|           |    Vars  Clauses Literals |    Limit  Clauses Lit/Cl |          |
===============================================================================
===============================================================================
restarts              : 1
conflicts             : 23             (869 /sec)
decisions             : 4883           (0.00 % random) (184515 /sec)
propagations          : 26250          (991914 /sec)
conflict literals     : 58             (0.00 % deleted)
Memory used           : 14.82 MB
CPU time              : 0.026464 s

UNSATISFIABLE
